#######################



#######################
Set parameter TimeLimit to value 300
Set parameter SoftMemLimit to value 125
Set parameter MIPFocus to value 2
Set parameter LogFile to value 1003-MIPFocus2-Presolve1-TimeLimit300-k16x240-7.log
Set parameter Presolve to value 1
Set parameter Seed to value 7
Using license file /opt/gurobi/gurobi.lic

Gurobi Optimizer version 10.0.3 build v10.0.3rc0 (linux64)
Copyright (c) 2023, Gurobi Optimization, LLC

Read MPS format model from file /miplib2010/k16x240.mps.bz2
Reading time = 0.00 seconds
k16x240: 256 rows, 480 columns, 960 nonzeros

CPU model: Intel(R) Xeon(R) E-2388G CPU @ 3.20GHz, instruction set [SSE2|AVX|AVX2|AVX512]
Thread count: 8 physical cores, 16 logical processors, using up to 16 threads

Optimize a model with 256 rows, 480 columns and 960 nonzeros
Model fingerprint: 0x4e80885f
Variable types: 240 continuous, 240 integer (240 binary)
Coefficient statistics:
  Matrix range     [1e+00, 1e+03]
  Objective range  [1e+00, 1e+03]
  Bounds range     [1e+00, 1e+03]
  RHS range        [4e+00, 4e+02]
Found heuristic solution: objective 24303.000000
Presolve time: 0.00s
Presolved: 256 rows, 480 columns, 960 nonzeros
Variable types: 240 continuous, 240 integer (240 binary)

Root relaxation: objective 2.769838e+03, 51 iterations, 0.00 seconds (0.00 work units)

    Nodes    |    Current Node    |     Objective Bounds      |     Work
 Expl Unexpl |  Obj  Depth IntInf | Incumbent    BestBd   Gap | It/Node Time

     0     0 2769.83800    0   14 24303.0000 2769.83800  88.6%     -    0s
H    0     0                    11359.000000 2769.83800  75.6%     -    0s
H    0     0                    11195.000000 2769.83800  75.3%     -    0s
H    0     0                    11074.000000 8116.87580  26.7%     -    0s
     0     0 8116.87580    0   26 11074.0000 8116.87580  26.7%     -    0s
H    0     0                    10916.000000 8116.87580  25.6%     -    0s
H    0     0                    10851.000000 8588.30479  20.9%     -    0s
     0     0 8588.30479    0   25 10851.0000 8588.30479  20.9%     -    0s
     0     0 8613.92228    0   22 10851.0000 8613.92228  20.6%     -    0s
     0     0 8710.21785    0   16 10851.0000 8710.21785  19.7%     -    0s
H    0     0                    10826.000000 8710.21785  19.5%     -    0s
H    0     0                    10779.000000 8842.09404  18.0%     -    0s
     0     0 8842.09404    0   27 10779.0000 8842.09404  18.0%     -    0s
     0     0 8855.03324    0   36 10779.0000 8855.03324  17.8%     -    0s
     0     0 8857.29435    0   38 10779.0000 8857.29435  17.8%     -    0s
H    0     0                    10739.000000 8857.29435  17.5%     -    0s
     0     0 9004.37475    0   39 10739.0000 9004.37475  16.2%     -    0s
     0     0 9056.22688    0   38 10739.0000 9056.22688  15.7%     -    0s
     0     0 9066.06807    0   38 10739.0000 9066.06807  15.6%     -    0s
     0     0 9092.49354    0   31 10739.0000 9092.49354  15.3%     -    0s
     0     0 9099.64746    0   39 10739.0000 9099.64746  15.3%     -    0s
     0     0 9152.52527    0   35 10739.0000 9152.52527  14.8%     -    0s
     0     0 9152.52527    0   35 10739.0000 9152.52527  14.8%     -    0s
H    0     2                    10681.000000 9152.52527  14.3%     -    0s
     0     2 9152.52527    0   35 10681.0000 9152.52527  14.3%     -    0s
H   46    48                    10678.000000 9259.89621  13.3%  62.6    0s
H  119   138                    10674.000000 9259.89621  13.2%  47.0    0s
 33167 13718     cutoff   46      10674.0000 10008.0434  6.24%  27.7    5s
 80218 21602 10461.8953   30   12 10674.0000 10195.5283  4.48%  28.9   10s
 127689 21783 10521.7536   31   15 10674.0000 10334.0155  3.19%  29.1   15s
 171884  9131     cutoff   35      10674.0000 10489.6551  1.73%  28.8   20s

Cutting planes:
  Gomory: 2
  Lift-and-project: 11
  Cover: 94
  Implied bound: 45
  MIR: 153
  Flow cover: 309
  Flow path: 42
  Inf proof: 4
  Zero half: 6
  Network: 56

Explored 186321 nodes (5188830 simplex iterations) in 21.59 seconds (25.40 work units)
Thread count was 16 (of 16 available processors)

Solution count 10: 10674 10678 10681 ... 11195

Optimal solution found (tolerance 1.00e-04)
Best objective 1.067400000000e+04, best bound 1.067400000000e+04, gap 0.0000%
